AES/1_2_8/ssaes_r1-20_c2_rw1_e8_f0_k1-20_aes_canon_box_aes_mc_bidirectional/ExperimentMinisat_r16_k17cnf_2011-11-07-115442/Result
WARNING: for repeatability, setting FPU to use double precision
============================[ Problem Statistics ]=============================
|                                                                             |
|  Number of variables:         13616                                         |
|  Number of clauses:          212080                                         |
|  Parse time:                   0.09 s                                       |
|  Eliminated clauses:           0.01 Mb                                      |
|  Simplification time:          0.26 s                                       |
|                                                                             |
=============================[ Search Statistics ]==============================
| Conflicts  |          ORIGINAL         |          LEARNT          | Progress |
|            |    Vars  Clauses Literals |    Limit  Clauses Lit/Cl |          |
================================================================================
|        100 |   13184   210960   620416 |    77352      100    126 |  1.175 % |
|        250 |   13184   210960   620416 |    85087      250    133 |  1.175 % |
|        475 |   13184   210960   620416 |    93595      475     76 |  1.175 % |
|        812 |   13184   210960   620416 |   102955      812     49 |  1.175 % |
|       1318 |   13184   210960   620416 |   113251     1318     41 |  1.175 % |
|       2077 |   13184   210960   620416 |   124576     2077     37 |  1.175 % |
|       3216 |   13184   210960   620416 |   137033     3216     35 |  1.175 % |
|       4924 |   13184   210960   620416 |   150737     4924     32 |  1.175 % |
|       7486 |   13184   210960   620416 |   165810     7486     33 |  1.175 % |
|      11330 |   13184   210960   620416 |   182391    11330     31 |  1.175 % |
|      17096 |   13184   210960   620416 |   200631    17096     29 |  1.175 % |
|      25745 |   13184   210960   620416 |   220694    25745     31 |  1.175 % |
|      38719 |   13184   210960   620416 |   242763    38719     25 |  1.175 % |
|      58180 |   13184   210960   620416 |   267040    58180     20 |  1.175 % |
===============================================================================
restarts              : 211
conflicts             : 67992          (663 /sec)
decisions             : 77903          (0.00 % random) (760 /sec)
propagations          : 632802497      (6174621 /sec)
conflict literals     : 1293054        (96.10 % deleted)
Memory used           : 29.00 MB
CPU time              : 102.484 s

SATISFIABLE
